words_hard_train/4719.qaiger
aag 56 15 0 1 41
2
4
8
16
22
32
34
38
40
44
46
50
52
56
78
113
6 3 4
10 7 9
12 6 8
14 11 13
18 9 16
20 19 13
24 20 23
26 21 22
28 25 27
30 15 29
36 33 34
42 39 40
48 45 46
54 51 52
58 23 56
60 59 27
62 61 50
64 55 63
66 65 44
68 49 67
70 69 38
72 43 71
74 73 32
76 37 75
80 77 78
82 30 81
84 60 51
86 85 63
88 87 3
90 64 45
92 91 67
94 88 93
96 68 39
98 97 71
100 94 99
102 72 33
104 103 75
106 100 105
108 76 79
110 106 109
112 82 110
i0 1 x1[0]
i1 2 y2[0]
i2 1 x1[1]
i3 2 y2[1]
i4 1 x1[2]
i5 1 x1[6]
i6 2 y2[6]
i7 1 x1[5]
i8 2 y2[5]
i9 1 x1[4]
i10 2 y2[4]
i11 1 x1[3]
i12 2 y2[3]
i13 2 y2[2]
i14 1 x1[7]
o0 bv[0]
c
simplified
  <
    reverse
      1
    add
      xor
        2 y2
        1 x1
      2 y2
