words_hard_train/4719.qaiger.qdimacs
p cnf 56 124
a 1 4 39 11 16 19 22 25 0
e 2 3 5 6 7 8 9 10 12 13 14 15 17 18 20 21 23 24 26 27 28 29 30 31 32 33 34 35 36 37 38 40 41 42 43 44 45 46 47 48 49 50 51 52 53 54 55 56 0
1 -2 3 0
-1 -3 0
2 -3 0
3 4 5 0
-3 -5 0
-4 -5 0
-3 -4 6 0
3 -6 0
4 -6 0
5 6 7 0
-5 -7 0
-6 -7 0
4 -8 9 0
-4 -9 0
8 -9 0
9 6 10 0
-9 -10 0
-6 -10 0
-10 11 12 0
10 -12 0
-11 -12 0
10 -11 13 0
-10 -13 0
11 -13 0
12 13 14 0
-12 -14 0
-13 -14 0
7 14 15 0
-7 -15 0
-14 -15 0
16 -17 18 0
-16 -18 0
17 -18 0
19 -20 21 0
-19 -21 0
20 -21 0
22 -23 24 0
-22 -24 0
23 -24 0
25 -26 27 0
-25 -27 0
26 -27 0
11 -28 29 0
-11 -29 0
28 -29 0
29 13 30 0
-29 -30 0
-13 -30 0
30 -25 31 0
-30 -31 0
25 -31 0
27 31 32 0
-27 -32 0
-31 -32 0
32 -22 33 0
-32 -33 0
22 -33 0
24 33 34 0
-24 -34 0
-33 -34 0
34 -19 35 0
-34 -35 0
19 -35 0
21 35 36 0
-21 -36 0
-35 -36 0
36 -16 37 0
-36 -37 0
16 -37 0
18 37 38 0
-18 -38 0
-37 -38 0
38 -39 40 0
-38 -40 0
39 -40 0
-15 40 41 0
15 -41 0
-40 -41 0
-30 25 42 0
30 -42 0
-25 -42 0
42 31 43 0
-42 -43 0
-31 -43 0
43 1 44 0
-43 -44 0
-1 -44 0
-32 22 45 0
32 -45 0
-22 -45 0
45 33 46 0
-45 -46 0
-33 -46 0
-44 46 47 0
44 -47 0
-46 -47 0
-34 19 48 0
34 -48 0
-19 -48 0
48 35 49 0
-48 -49 0
-35 -49 0
-47 49 50 0
47 -50 0
-49 -50 0
-36 16 51 0
36 -51 0
-16 -51 0
51 37 52 0
-51 -52 0
-37 -52 0
-50 52 53 0
50 -53 0
-52 -53 0
-38 39 54 0
38 -54 0
-39 -54 0
-53 54 55 0
53 -55 0
-54 -55 0
-41 -55 56 0
41 -56 0
55 -56 0
-56 0
